1 1 2 0
1 1 3 0
1 -2 4 0
1 2 -3 0
1 5 -6 0
1 5 -7 0
1 -5 8 0
1 5 9 0
1 5 10 0
1 7 -8 0
1 -7 -11 0
1 7 12 0
1 7 -5 0
1 11 -13 0
1 -11 -14 0
1 11 15 0
1 -11 16 0
1 11 -17 0
1 11 -18 0
1 -10 -7 0
1 10 -2 0
1 10 16 0
1 -10 17 0
1 -10 18 0
1 10 -1 0
1 8 -13 0
1 -8 -19 0
1 -8 20 0
1 8 7 0
1 8 -21 0
1 8 -16 0
1 -8 -5 0
1 -8 1 0
1 3 13 0
1 -3 -2 0
1 -3 8 0
1 -3 1 0
1 3 -22 0
1 18 -23 0
1 18 -11 0
1 18 -12 0
1 18 24 0
1 14 -23 0
1 -14 -6 0
1 -14 11 0
1 14 25 0
1 14 10 0
1 -17 23 0
1 -17 11 0
1 17 25 0
1 17 -12 0
1 17 26 0
1 -17 -27 0
1 -17 -10 0
1 28 -6 0
1 28 -19 0
1 -28 11 0
1 -28 25 0
1 28 -29 0
1 -28 -27 0
1 -28 -10 0
1 -12 -30 0
1 12 31 0
1 -12 6 0
1 -12 28 0
1 12 -14 0
1 12 7 0
1 -12 -32 0
1 12 33 0
1 12 -17 0
1 -12 34 0
1 6 35 0
1 6 14 0
1 -6 32 0
1 -6 36 0
1 6 -33 0
1 -6 17 0
1 -6 -18 0
1 -6 5 0
1 -25 23 0
1 25 37 0
1 25 28 0
1 -25 -32 0
1 25 -38 0
1 25 39 0
1 25 -16 0
1 -25 17 0
1 -25 5 0
1 -23 -40 0
1 -23 28 0
1 23 14 0
1 23 7 0
1 23 25 0
1 33 6 0
1 33 41 0
1 33 29 0
1 -33 -27 0
1 31 -42 0
1 31 33 0
1 31 29 0
1 -31 27 0
1 36 6 0
1 36 -41 0
1 36 -42 0
1 36 -27 0
1 -30 -6 0
1 -30 41 0
1 -30 -42 0
1 30 -36 0
1 30 -27 0
1 27 31 0
1 27 42 0
1 -27 43 0
1 -27 -36 0
1 27 33 0
1 27 17 0
1 -27 44 0
1 -42 30 0
1 42 31 0
1 42 28 0
1 -42 -45 0
1 42 17 0
1 42 46 0
1 29 -30 0
1 29 -28 0
1 -29 47 0
1 -29 -32 0
1 29 36 0
1 -29 -17 0
1 -29 -48 0
1 -41 -30 0
1 41 28 0
1 41 32 0
1 -41 -36 0
1 -41 33 0
1 41 29 0
1 41 49 0
1 50 -4 0
1 50 -51 0
1 -50 52 0
1 50 1 0
1 4 53 0
1 4 -50 0
1 9 -54 0
1 -9 53 0
1 9 -55 0
1 -9 56 0
1 -9 57 0
1 -9 -58 0
1 -9 -5 0
1 -56 54 0
1 -56 -53 0
1 -56 7 0
1 -56 -52 0
1 56 57 0
1 56 9 0
1 -53 -59 0
1 53 60 0
1 -53 -20 0
1 53 -4 0
1 -53 52 0
1 53 61 0
1 -53 -26 0
1 -52 53 0
1 -52 -59 0
1 -52 -4 0
1 52 -61 0
1 -52 -26 0
1 -52 -24 0
1 -52 -9 0
1 54 59 0
1 -54 -62 0
1 54 56 0
1 -54 51 0
1 -54 50 0
1 -51 -54 0
1 -51 -56 0
1 -51 -63 0
1 51 -61 0
1 -51 -64 0
1 51 9 0
1 24 53 0
1 24 58 0
1 24 3 0
1 -20 53 0
1 20 -65 0
1 20 66 0
1 -20 8 0
1 20 -57 0
1 20 -24 0
1 26 -53 0
1 26 65 0
1 26 67 0
1 -26 -68 0
1 -26 -58 0
1 26 69 0
1 26 -70 0
1 -19 -58 0
1 -19 53 0
1 19 55 0
1 -19 -65 0
1 19 -68 0
1 -19 70 0
1 -19 -3 0
1 -65 -71 0
1 -65 37 0
1 65 19 0
1 65 20 0
1 -65 -72 0
1 -65 26 0
1 -65 -9 0
1 58 71 0
1 58 37 0
1 58 -13 0
1 58 -19 0
1 58 65 0
1 58 -56 0
1 58 73 0
1 -58 -16 0
1 -58 -74 0
1 -58 -24 0
1 -58 9 0
1 -55 -71 0
1 55 75 0
1 -55 19 0
1 55 20 0
1 -55 57 0
1 -55 24 0
1 -57 20 0
1 -57 73 0
1 57 76 0
1 -57 26 0
1 -57 9 0
1 -16 -23 0
1 16 -13 0
1 16 65 0
1 -16 67 0
1 -16 68 0
1 -16 8 0
1 -16 25 0
1 16 -58 0
1 -16 77 0
1 -16 70 0
1 16 10 0
1 -13 -59 0
1 -13 65 0
1 13 -68 0
1 13 -8 0
1 13 -25 0
1 -38 78 0
1 38 -23 0
1 38 -68 0
1 38 -21 0
1 -38 36 0
1 38 58 0
1 -38 70 0
1 37 -23 0
1 37 -75 0
1 -37 -15 0
1 -37 -25 0
1 37 38 0
1 37 58 0
1 -37 -22 0
1 -68 37 0
1 -68 13 0
1 -68 -19 0
1 -68 47 0
1 68 -79 0
1 -68 49 0
1 -68 34 0
1 -70 13 0
1 70 19 0
1 70 -68 0
1 -70 32 0
1 -70 -16 0
1 70 26 0
1 70 -49 0
1 -67 71 0
1 67 -13 0
1 -67 -73 0
1 -67 16 0
1 67 -80 0
1 -67 -81 0
1 77 67 0
1 77 -73 0
1 -77 -16 0
1 77 82 0
1 -77 81 0
1 32 78 0
1 -32 -6 0
1 -32 -68 0
1 32 -73 0
1 -32 25 0
1 32 15 0
1 -32 -29 0
1 -32 70 0
1 32 -22 0
1 -32 -34 0
1 34 23 0
1 34 -78 0
1 34 41 0
1 -34 68 0
1 34 -32 0
1 -34 70 0
1 -34 -22 0
1 47 78 0
1 47 40 0
1 47 -41 0
1 47 -83 0
1 -49 35 0
1 -49 41 0
1 49 47 0
1 -49 15 0
1 -49 83 0
1 49 -29 0
1 49 22 0
1 49 70 0
1 -15 -78 0
1 15 -84 0
1 15 43 0
1 15 -47 0
1 15 -32 0
1 15 -11 0
1 -15 -85 0
1 -15 -38 0
1 -15 86 0
1 -15 -46 0
1 15 -49 0
1 -78 -87 0
1 -78 37 0
1 -78 88 0
1 78 47 0
1 78 32 0
1 78 -38 0
1 78 -89 0
1 78 -34 0
1 21 37 0
1 21 -84 0
1 21 32 0
1 21 -38 0
1 21 90 0
1 -22 -37 0
1 -22 -47 0
1 22 21 0
1 22 32 0
1 22 38 0
1 -22 -3 0
1 22 89 0
1 -22 -90 0
1 22 80 0
1 -22 -49 0
1 22 34 0
1 43 78 0
1 -43 41 0
1 -43 -42 0
1 -43 91 0
1 -43 29 0
1 46 42 0
1 -46 29 0
1 88 35 0
1 -88 86 0
1 88 92 0
1 -88 15 0
1 88 48 0
1 -88 44 0
1 86 78 0
1 86 -93 0
1 86 -88 0
1 86 48 0
1 83 -35 0
1 -83 -12 0
1 83 94 0
1 -83 -86 0
1 35 -95 0
1 -35 -47 0
1 -35 96 0
1 35 -97 0
1 39 -40 0
1 39 95 0
1 39 -98 0
1 -39 -43 0
1 -39 -25 0
1 39 86 0
1 40 -98 0
1 40 -88 0
1 40 -47 0
1 -40 96 0
1 40 99 0
1 -40 -89 0
1 -40 -49 0
1 100 -35 0
1 -100 93 0
1 100 45 0
1 100 48 0
1 -100 -83 0
1 -100 44 0
1 -97 -100 0
1 97 83 0
1 97 -44 0
1 101 93 0
1 101 -98 0
1 101 -45 0
1 101 94 0
1 101 83 0
1 101 -48 0
1 -101 44 0
1 94 -45 0
1 -94 -44 0
1 -44 100 0
1 44 88 0
1 44 102 0
1 -44 94 0
1 44 -27 0
1 -44 -103 0
1 -45 -42 0
1 -45 -94 0
1 -45 86 0
1 48 104 0
1 -48 -105 0
1 48 95 0
1 48 101 0
1 -48 -100 0
1 48 102 0
1 48 -94 0
1 -48 -29 0
1 48 -106 0
1 93 104 0
1 -93 105 0
1 -93 -95 0
1 -93 -41 0
1 93 -101 0
1 93 -107 0
1 93 102 0
1 93 -108 0
1 93 94 0
1 -93 -86 0
1 109 -110 0
1 109 -111 0
1 110 111 0
1 -112 9 0
1 112 113 0
1 -114 115 0
1 114 56 0
1 -114 -116 0
1 -114 117 0
1 -116 66 0
1 116 -114 0
1 -116 110 0
1 116 118 0
1 116 -64 0
1 -116 112 0
1 115 -116 0
1 -115 -114 0
1 -115 -69 0
1 115 -64 0
1 -115 112 0
1 115 109 0
1 111 119 0
1 -111 -110 0
1 111 -112 0
1 120 114 0
1 -120 -110 0
1 120 -111 0
1 120 -109 0
1 -64 115 0
1 64 66 0
1 64 -121 0
1 64 51 0
1 64 116 0
1 64 -24 0
1 -64 -117 0
1 -66 54 0
1 -66 122 0
1 -66 117 0
1 -66 -64 0
1 -69 123 0
1 -69 116 0
1 69 117 0
1 62 54 0
1 -62 -116 0
1 62 -122 0
1 62 -69 0
1 -62 -113 0
1 113 124 0
1 113 59 0
1 113 62 0
1 -113 -66 0
1 -113 114 0
1 -113 61 0
1 113 69 0
1 -113 64 0
1 -113 112 0
1 -113 -125 0
1 -121 62 0
1 -121 -66 0
1 -121 -126 0
1 121 -76 0
1 -121 61 0
1 -121 -64 0
1 117 -124 0
1 -117 -62 0
1 -117 -66 0
1 -117 -122 0
1 -117 -114 0
1 -122 -124 0
1 122 62 0
1 122 114 0
1 -122 -117 0
1 -122 126 0
1 -61 59 0
1 -61 121 0
1 61 52 0
1 59 -127 0
1 -59 -54 0
1 -59 -53 0
1 -59 -55 0
1 59 121 0
1 59 -123 0
1 -59 -128 0
1 59 -52 0
1 59 -57 0
1 59 -61 0
1 -76 -75 0
1 76 60 0
1 76 55 0
1 -76 -123 0
1 -76 128 0
1 -76 -63 0
1 76 -129 0
1 75 127 0
1 -75 -37 0
1 -75 130 0
1 -75 -55 0
1 -75 -121 0
1 -75 -128 0
1 75 63 0
1 75 -57 0
1 -127 -131 0
1 127 75 0
1 127 -59 0
1 -127 62 0
1 127 128 0
1 -127 -73 0
1 127 -76 0
1 -127 69 0
1 128 -71 0
1 128 127 0
1 -128 -59 0
1 -128 62 0
1 -128 -132 0
1 128 133 0
1 -128 61 0
1 -128 81 0
1 134 124 0
1 -134 59 0
1 134 135 0
1 134 -76 0
1 -134 -61 0
1 -134 -136 0
1 -134 137 0
1 123 124 0
1 -123 -75 0
1 -123 -138 0
1 123 -126 0
1 -123 76 0
1 123 61 0
1 -123 -136 0
1 -73 71 0
1 73 -127 0
1 73 -130 0
1 73 -67 0
1 -73 -63 0
1 73 -57 0
1 -73 77 0
1 -71 -124 0
1 -71 130 0
1 -71 55 0
1 -71 -65 0
1 -71 -73 0
1 -71 58 0
1 139 -130 0
1 -139 60 0
1 -139 67 0
1 -139 140 0
1 139 -74 0
1 -81 -130 0
1 81 -60 0
1 81 141 0
1 -81 72 0
1 81 -139 0
1 -60 91 0
1 -60 76 0
1 60 90 0
1 -60 80 0
1 -60 -81 0
1 -129 -71 0
1 129 -91 0
1 129 142 0
1 129 80 0
1 130 -54 0
1 130 -143 0
1 130 -144 0
1 -130 -145 0
1 -130 132 0
1 130 -139 0
1 130 73 0
1 130 146 0
1 -130 136 0
1 63 71 0
1 -63 75 0
1 -63 -130 0
1 -63 -144 0
1 -63 145 0
1 63 -76 0
1 -63 147 0
1 63 146 0
1 -63 -136 0
1 -91 -60 0
1 91 -141 0
1 -91 72 0
1 91 -43 0
1 -91 -68 0
1 91 21 0
1 -91 -74 0
1 91 77 0
1 -91 -22 0
1 80 60 0
1 -80 -72 0
1 80 67 0
1 -80 -91 0
1 80 21 0
1 80 -129 0
1 80 -74 0
1 80 -77 0
1 -80 -136 0
1 80 22 0
1 92 60 0
1 -92 82 0
1 -92 -141 0
1 92 -72 0
1 -92 148 0
1 92 79 0
1 92 -21 0
1 92 -149 0
1 90 60 0
1 -90 141 0
1 -90 79 0
1 -90 21 0
1 90 129 0
1 90 74 0
1 -90 82 0
1 90 149 0
1 -90 22 0
1 72 150 0
1 -72 -84 0
1 -72 151 0
1 -72 90 0
1 72 -80 0
1 74 -150 0
1 -74 -92 0
1 74 -152 0
1 -74 -99 0
1 74 58 0
1 -74 153 0
1 -74 90 0
1 141 55 0
1 -141 92 0
1 -141 -91 0
1 141 154 0
1 -141 -80 0
1 154 -150 0
1 -154 155 0
1 154 -156 0
1 -154 92 0
1 154 152 0
1 154 147 0
1 154 -80 0
1 154 -81 0
1 -84 78 0
1 84 -40 0
1 84 74 0
1 84 -100 0
1 -84 -72 0
1 -84 -148 0
1 84 -39 0
1 -84 82 0
1 84 -149 0
1 -84 -22 0
1 -89 40 0
1 -89 -84 0
1 -89 -148 0
1 89 79 0
1 89 21 0
1 89 39 0
1 89 -97 0
1 -89 74 0
1 -89 147 0
1 89 -82 0
1 -89 -149 0
1 -98 87 0
1 98 40 0
1 -98 101 0
1 -98 -148 0
1 -98 85 0
1 98 74 0
1 98 -82 0
1 -98 -149 0
1 -99 -98 0
1 99 -39 0
1 -99 94 0
1 -99 74 0
1 99 -82 0
1 99 157 0
1 -79 84 0
1 -79 -92 0
1 -79 68 0
1 -79 158 0
1 79 159 0
1 79 -96 0
1 79 149 0
1 149 -105 0
1 149 98 0
1 149 84 0
1 149 108 0
1 -149 70 0
1 -148 -150 0
1 -148 84 0
1 148 -67 0
1 148 160 0
1 -148 -161 0
1 82 162 0
1 82 -98 0
1 -82 84 0
1 -82 -92 0
1 82 -159 0
1 82 152 0
1 -82 -99 0
1 -82 -77 0
1 -82 90 0
1 82 163 0
1 -95 -87 0
1 95 -40 0
1 -95 -48 0
1 -95 -149 0
1 -95 157 0
1 -96 -40 0
1 -96 -95 0
1 -96 -93 0
1 -96 -164 0
1 -96 152 0
1 -96 -83 0
1 -96 157 0
1 105 -79 0
1 105 108 0
1 -105 -85 0
1 -105 -149 0
1 105 157 0
1 -108 -87 0
1 108 165 0
1 108 93 0
1 -108 79 0
1 108 -164 0
1 -108 -85 0
1 108 -166 0
1 -108 -167 0
1 -108 -48 0
1 -108 -149 0
1 108 157 0
1 -85 87 0
1 85 -108 0
1 -85 -15 0
1 -85 96 0
1 -85 -99 0
1 -85 -168 0
1 87 -95 0
1 87 -98 0
1 -87 169 0
1 -87 170 0
1 87 102 0
1 87 -168 0
1 -87 -171 0
1 164 95 0
1 -164 -159 0
1 -164 96 0
1 164 168 0
1 -164 157 0
1 -157 -172 0
1 157 105 0
1 -157 98 0
1 -157 108 0
1 157 -96 0
1 157 168 0
1 104 87 0
1 -104 93 0
1 -104 85 0
1 104 -166 0
1 104 48 0
1 -104 -44 0
1 -102 104 0
1 102 173 0
1 -102 -165 0
1 -102 85 0
1 -102 -166 0
1 -102 -167 0
1 -102 48 0
1 -102 -44 0
1 -171 87 0
1 171 -107 0
1 171 -170 0
1 -171 -166 0
1 -171 -167 0
1 170 173 0
1 -170 107 0
1 170 -106 0
1 -170 103 0
1 -167 -104 0
1 167 -105 0
1 167 170 0
1 167 102 0
1 -167 -83 0
1 167 174 0
1 -165 104 0
1 -165 167 0
1 -165 -174 0
1 -165 171 0
1 166 -173 0
1 166 -175 0
1 166 -102 0
1 -166 -108 0
1 166 -39 0
1 -166 -176 0
1 166 168 0
1 166 -171 0
1 173 105 0
1 -173 169 0
1 173 -176 0
1 174 -107 0
1 -174 103 0
1 -174 -168 0
1 177 165 0
1 177 107 0
1 177 106 0
1 -178 -107 0
1 -178 179 0
1 -178 167 0
1 178 103 0
1 178 -176 0
1 179 -107 0
1 -179 -180 0
1 -179 -167 0
1 103 179 0
1 103 -180 0
1 -103 -178 0
1 -103 174 0
1 -103 -171 0
1 -180 45 0
1 -180 174 0
1 180 -171 0
1 -106 -179 0
1 106 -48 0
1 -106 -174 0
1 -107 -93 0
1 -107 -179 0
1 107 -170 0
1 -107 -178 0
1 107 174 0
1 107 -171 0
1 -126 -124 0
1 -126 -181 0
1 -126 121 0
1 126 -73 0
1 -126 119 0
1 126 118 0
1 -126 117 0
1 124 -181 0
1 124 122 0
1 124 121 0
1 124 118 0
1 124 134 0
1 -140 -182 0
1 140 139 0
1 140 118 0
1 140 -125 0
1 140 -134 0
1 -137 -123 0
1 137 140 0
1 -137 118 0
1 137 183 0
1 118 184 0
1 118 145 0
1 118 132 0
1 -118 185 0
1 118 -140 0
1 118 -126 0
1 -118 136 0
1 -184 -124 0
1 -184 115 0
1 -184 -132 0
1 184 136 0
1 119 140 0
1 119 111 0
1 -119 186 0
1 -119 137 0
1 -181 -120 0
1 181 187 0
1 181 -126 0
1 181 137 0
1 -132 -127 0
1 -132 130 0
1 132 -184 0
1 132 -182 0
1 132 -123 0
1 132 -63 0
1 132 136 0
1 -132 -134 0
1 136 127 0
1 136 130 0
1 136 -123 0
1 -136 132 0
1 136 -128 0
1 -136 118 0
1 136 -183 0
1 -145 -131 0
1 -145 184 0
1 145 -188 0
1 -145 -182 0
1 145 -133 0
1 145 183 0
1 -145 118 0
1 145 -146 0
1 -145 135 0
1 146 -130 0
1 -146 184 0
1 146 -188 0
1 146 -145 0
1 146 133 0
1 -146 63 0
1 -146 118 0
1 -146 125 0
1 146 135 0
1 -125 -189 0
1 -125 156 0
1 125 145 0
1 125 -132 0
1 -125 -140 0
1 -125 190 0
1 125 -146 0
1 125 113 0
1 -125 136 0
1 -125 137 0
1 -182 -189 0
1 -182 -156 0
1 -182 121 0
1 -182 145 0
1 182 -132 0
1 182 -140 0
1 -182 -190 0
1 -182 -191 0
1 -182 -147 0
1 182 -136 0
1 183 -146 0
1 183 -136 0
1 188 132 0
1 -188 140 0
1 -188 183 0
1 -188 146 0
1 -144 -131 0
1 -144 -130 0
1 144 -60 0
1 -144 84 0
1 -144 -182 0
1 -144 63 0
1 144 147 0
1 147 -138 0
1 147 -63 0
1 -147 -129 0
1 -147 -125 0
1 147 135 0
1 -156 143 0
1 156 -192 0
1 156 141 0
1 156 -193 0
1 156 154 0
1 191 -131 0
1 -191 192 0
1 191 -138 0
1 -191 193 0
1 191 -142 0
1 191 -99 0
1 191 -135 0
1 131 127 0
1 -131 -162 0
1 131 156 0
1 -131 194 0
1 -131 -191 0
1 -131 -147 0
1 -133 195 0
1 133 -150 0
1 -133 -144 0
1 -133 152 0
1 -133 147 0
1 -135 -196 0
1 135 195 0
1 -135 197 0
1 -135 189 0
1 -135 144 0
1 -135 -191 0
1 135 -147 0
1 -135 -146 0
1 138 195 0
1 138 197 0
1 138 -189 0
1 138 144 0
1 138 194 0
1 138 190 0
1 -150 131 0
1 150 -189 0
1 150 72 0
1 -150 148 0
1 -150 -142 0
1 150 74 0
1 -150 -82 0
1 -152 -143 0
1 152 141 0
1 -152 72 0
1 -152 133 0
1 152 193 0
1 -152 82 0
1 -162 -131 0
1 162 -143 0
1 162 -192 0
1 -162 -151 0
1 -162 161 0
1 162 -193 0
1 162 -82 0
1 -161 -162 0
1 161 151 0
1 161 148 0
1 161 108 0
1 161 -198 0
1 161 142 0
1 -161 -155 0
1 -161 -153 0
1 -161 -82 0
1 192 -162 0
1 192 -150 0
1 -192 60 0
1 192 -156 0
1 192 199 0
1 -192 161 0
1 192 142 0
1 142 -156 0
1 142 -200 0
1 142 -199 0
1 -142 -161 0
1 142 152 0
1 142 -191 0
1 143 130 0
1 143 -150 0
1 -143 201 0
1 143 194 0
1 -143 -191 0
1 -193 -162 0
1 193 143 0
1 -193 -150 0
1 193 156 0
1 193 -201 0
1 193 152 0
1 -193 -191 0
1 -172 -202 0
1 172 151 0
1 -172 79 0
1 -172 -159 0
1 172 164 0
1 -172 82 0
1 172 149 0
1 -159 -192 0
1 -159 102 0
1 -159 -155 0
1 159 -153 0
1 -159 82 0
1 203 -202 0
1 -203 -164 0
1 203 -142 0
1 203 -155 0
1 -203 153 0
1 -203 163 0
1 -203 171 0
1 -203 157 0
1 -199 -192 0
1 -199 202 0
1 199 -151 0
1 199 160 0
1 -199 -170 0
1 199 158 0
1 -199 201 0
1 -199 164 0
1 199 -142 0
1 199 155 0
1 199 -157 0
1 -151 -172 0
1 -151 -153 0
1 -151 72 0
1 -151 -175 0
1 -151 -169 0
1 151 199 0
1 151 -159 0
1 -151 161 0
1 -151 -176 0
1 151 203 0
1 -153 -162 0
1 -153 151 0
1 153 -169 0
1 153 161 0
1 -153 -176 0
1 153 168 0
1 202 -172 0
1 202 141 0
1 -202 159 0
1 202 -161 0
1 -155 -162 0
1 155 -202 0
1 155 -199 0
1 -155 -159 0
1 -155 -161 0
1 -155 -203 0
1 168 173 0
1 -168 169 0
1 -168 -160 0
1 -168 -85 0
1 168 166 0
1 168 -153 0
1 -168 -174 0
1 168 157 0
1 -169 -173 0
1 169 177 0
1 -169 160 0
1 169 -158 0
1 169 -164 0
1 169 -153 0
1 -169 163 0
1 169 168 0
1 176 -173 0
1 -176 -175 0
1 -176 -151 0
1 176 166 0
1 176 204 0
1 175 -179 0
1 -175 -160 0
1 175 153 0
1 -175 205 0
1 -158 175 0
1 -158 199 0
1 -158 205 0
1 158 176 0
1 -158 168 0
1 205 175 0
1 205 -176 0
1 160 -148 0
1 160 169 0
1 -160 199 0
1 -160 163 0
1 160 203 0
1 163 169 0
1 -163 199 0
1 189 -182 0
1 -189 138 0
1 -189 -190 0
1 189 125 0
1 190 -182 0
1 190 -152 0
1 190 186 0
1 190 185 0
1 190 -183 0
1 -197 162 0
1 197 206 0
1 197 207 0
1 -197 208 0
1 -197 138 0
1 -197 198 0
1 -197 -209 0
1 -198 -197 0
1 -198 -208 0
1 -198 161 0
1 198 -185 0
1 -198 209 0
1 198 -135 0
1 -185 189 0
1 -185 118 0
1 206 210 0
1 206 195 0
1 206 -197 0
1 206 -201 0
1 -206 185 0
1 -186 197 0
1 -186 -190 0
1 186 -119 0
1 -187 186 0
1 -187 -181 0
1 187 198 0
1 187 -190 0
1 -195 -172 0
1 195 -131 0
1 195 -208 0
1 195 -138 0
1 195 -133 0
1 -195 -194 0
1 -195 -193 0
1 -195 -211 0
1 -194 131 0
1 194 207 0
1 194 138 0
1 -194 -133 0
1 -194 -193 0
1 -194 -185 0
1 -194 209 0
1 194 211 0
1 -210 196 0
1 210 -212 0
1 -210 -143 0
1 210 206 0
1 -210 -207 0
1 -210 208 0
1 210 201 0
1 -210 -213 0
1 210 214 0
1 210 185 0
1 -210 209 0
1 -210 203 0
1 -201 -196 0
1 -201 206 0
1 -201 -207 0
1 201 208 0
1 -201 199 0
1 201 214 0
1 -201 -193 0
1 211 210 0
1 -211 195 0
1 -211 197 0
1 -211 -215 0
1 211 200 0
1 211 208 0
1 -211 201 0
1 211 194 0
1 211 198 0
1 -208 195 0
1 -208 -197 0
1 208 -198 0
1 -208 -204 0
1 -209 210 0
1 209 195 0
1 209 197 0
1 -209 -201 0
1 207 -197 0
1 207 -188 0
1 -207 194 0
1 -207 -198 0
1 207 -209 0
1 200 -192 0
1 -200 202 0
1 -200 -169 0
1 200 208 0
1 -200 -214 0
1 -200 142 0
1 200 -155 0
1 200 -211 0
1 -204 212 0
1 -204 202 0
1 -204 214 0
1 215 196 0
1 215 175 0
1 -215 -208 0
1 -215 214 0
1 215 155 0
1 215 204 0
1 212 -215 0
1 212 -201 0
1 214 -210 0
1 214 212 0
1 -214 -215 0
1 214 -200 0
1 -196 -201 0
1 -196 213 0
1 -196 -135 0
1 213 210 0
1 -213 -196 0
1 -213 -215 0
1 213 201 0
1 -213 204 0
